c parsing input formula with 132 variables and 420640 clauses
c finished parsing
c detected empty clause; start verification via backward checking
c 186728 of 420640 clauses in core                            
c 2625186 of 3631962 lemmas in core using 39720665 resolution steps
c 0 RAT lemmas in core; 0 redundant literals in core lemmas
s VERIFIED
c verification time: 3193.612 seconds
